
Gurobi 10.0.3 (linux64, gurobi_cl) logging started Thu Nov  2 11:38:43 2023

Set parameter TimeLimit to value 3600
Set parameter LogFile to value "RCPSP_145.log"
Set parameter Threads to value 32

Gurobi 10.0.3 (linux64, gurobi_cl) logging started Thu Nov  9 11:42:33 2023

Set parameter Username
Set parameter TimeLimit to value 3600
Set parameter LogFile to value "RCPSP_145.log"
Set parameter Threads to value 32
Academic license - for non-commercial use only - expires 2024-10-30
Using license file /home/jrivera6/gurobi-licenses/v1003/compute-0-34/gurobi.lic

Gurobi Optimizer version 10.0.3 build v10.0.3rc0 (linux64)
Copyright (c) 2023, Gurobi Optimization, LLC

Read MPS format model from file RCPSP_145.mps
Reading time = 0.04 seconds
RCPSP_145: 5329 rows, 2080 columns, 18873 nonzeros

CPU model: Intel(R) Xeon(R) Gold 6130 CPU @ 2.10GHz, instruction set [SSE2|AVX|AVX2|AVX512]
Thread count: 32 physical cores, 32 logical processors, using up to 32 threads

Optimize a model with 5329 rows, 2080 columns and 18873 nonzeros
Model fingerprint: 0x2d9b3351
Variable types: 32 continuous, 2048 integer (2048 binary)
Coefficient statistics:
  Matrix range     [1e+00, 2e+02]
  Objective range  [1e+00, 1e+00]
  Bounds range     [1e+00, 1e+00]
  RHS range        [1e+00, 2e+02]
Presolve removed 2483 rows and 918 columns
Presolve time: 0.18s
Presolved: 2846 rows, 1162 columns, 10540 nonzeros
Variable types: 31 continuous, 1131 integer (1131 binary)

Root relaxation: objective 5.600000e+01, 393 iterations, 0.00 seconds (0.00 work units)

    Nodes    |    Current Node    |     Objective Bounds      |     Work
 Expl Unexpl |  Obj  Depth IntInf | Incumbent    BestBd   Gap | It/Node Time

     0     0   56.00000    0   14          -   56.00000      -     -    0s
H    0     0                      62.0000000   56.00000  9.68%     -    0s
     0     0   56.00000    0   76   62.00000   56.00000  9.68%     -    0s
     0     0   56.00000    0   10   62.00000   56.00000  9.68%     -    1s
H    0     0                      59.0000000   56.00000  5.08%     -    1s
H    0     0                      56.0000000   56.00000  0.00%     -    2s

Cutting planes:
  Learned: 2
  Gomory: 5
  Cover: 1
  Implied bound: 6
  MIR: 1
  StrongCG: 1
  RLT: 4
  Relax-and-lift: 1

Explored 1 nodes (2052 simplex iterations) in 3.00 seconds (0.27 work units)
Thread count was 32 (of 32 available processors)

Solution count 3: 56 59 62 

Optimal solution found (tolerance 1.00e-04)
Best objective 5.600000000000e+01, best bound 5.600000000000e+01, gap 0.0000%

Wrote result file 'RCPSP_145.sol'

